proyfinal/src/viki/013/andrea/andrea-localstore/experimentInOfficeAgust.take6/worker_11/0c9d807c-bfd7-4bc4-a9f9-9a4ceef82449.als.cnf.out
Reading from standard input... Use '--help' for help.
============================[ Problem Statistics ]=============================
|                                                                             |
|  Number of variables:         87638                                         |
|  Number of clauses:          161767                                         |
|  Parse time:                   0.03 s                                       |
|                                                                             |
============================[ Search Statistics ]==============================
| Conflicts |          ORIGINAL         |          LEARNT          | Progress |
|           |    Vars  Clauses Literals |    Limit  Clauses Lit/Cl |          |
===============================================================================
|       100 |   62663   106165   265467 |    38927      100     18 | 28.498 % |
|       250 |   62663   106165   265467 |    42819      250     15 | 28.498 % |
|       475 |   62621   106036   265126 |    47101      353     57 | 28.546 % |
|       812 |   44150   105992   265036 |    51812      688     54 | 49.622 % |
|      1318 |   44150    51405   131098 |    56993     1181     44 | 49.622 % |
|      2077 |   44150    51405   131098 |    62692     1940     37 | 49.622 % |
|      3216 |   44150    51405   131098 |    68961     3079     33 | 49.622 % |
===============================================================================
restarts              : 17
conflicts             : 3332           (10758 /sec)
decisions             : 11101          (0.00 % random) (35842 /sec)
propagations          : 4520415        (14595308 /sec)
conflict literals     : 103668         (38.03 % deleted)
Memory used           : 21.85 MB
CPU time              : 0.309717 s

UNSATISFIABLE
